Optimizer called with the following parameters:
{'focal_plane_mask': {'field_stop_radius': None,
                      'grayscale': True,
                      'num_pix': 150,
                      'radius': 3.5},
 'image': {'bandwidth': 0.15,
           'contrast': 10,
           'iwa': 3.4,
           'num_wavelengths': 5,
           'owa': 14.0,
           'resolution': 2},
 'instrument': {'inst_name': 'USORT'},
 'lyot_stop': {'alignment_tolerance': 0,
               'filename': 'USORT/LS_USORT_circ_ID0000_OD0990_ovsamp16_N0128.fits',
               'num_lyot_stops': 1},
 'method': {'edge_width_for_prior': 2,
            'ending_scale': 1,
            'force_no_hermitian_symmetry': False,
            'force_no_x_mirror_symmetry': False,
            'force_no_y_mirror_symmetry': False,
            'initial_throughput_estimate': 1,
            'maximize_planet_throughput': True,
            'num_throughput_iterations': 2,
            'starting_scale': 1},
 'pupil': {'N': 128,
           'filename': 'USORT/TelAp_USORT_offaxis_ovsamp16_N0128.fits'},
 'solver': {'crossover': 0,
            'method': 2,
            'num_threads': 0}}

File organization:
{'analysis_dir': '/user/bnickson/GitHub/LUVex_TelAps/aplc_optimization/surveys/usort_offaxis_survey_N0128_telserv3/FPM35_IWA34/analysis',
 'drivers_dir': '/user/bnickson/GitHub/LUVex_TelAps/aplc_optimization/surveys/usort_offaxis_survey_N0128_telserv3/FPM35_IWA34/drivers',
 'input_files_dir': '/user/bnickson/GitHub/LUVex_TelAps/aplc_optimization/masks',
 'log_dir': '/user/bnickson/GitHub/LUVex_TelAps/aplc_optimization/surveys/usort_offaxis_survey_N0128_telserv3/FPM35_IWA34/logs',
 'solution_dir': '/user/bnickson/GitHub/LUVex_TelAps/aplc_optimization/surveys/usort_offaxis_survey_N0128_telserv3/FPM35_IWA34/solutions',
 'survey_dir': '/user/bnickson/GitHub/LUVex_TelAps/aplc_optimization/surveys/usort_offaxis_survey_N0128_telserv3/FPM35_IWA34'}

Telescope pupil:
   Mirror symmetry in x: yes
   Mirror symmetry in y: yes

Lyot stop #0:
   Mirror symmetry in x: yes
Lyot stop #0:
   Mirror symmetry in y: yes

Complete APLC:
   Mirror symmetry in x: yes
   Mirror symmetry in y: yes

Starting optimization at scale 1 with 2726 variables and 2905 constraints.
Creating model...
Set parameter Username
Academic license - for non-commercial use only - expires 2024-10-25
Set parameter Crossover to value 0
Set parameter Method to value 2
Calculating and adding constraints...
Wavelength 1/5; Variable 1000/2726
Wavelength 1/5; Variable 2000/2726
Wavelength 2/5; Variable 1000/2726
Wavelength 2/5; Variable 2000/2726
Wavelength 3/5; Variable 1000/2726
Wavelength 3/5; Variable 2000/2726
Wavelength 4/5; Variable 1000/2726
Wavelength 4/5; Variable 2000/2726
Wavelength 5/5; Variable 1000/2726
Wavelength 5/5; Variable 2000/2726
Start optimization...
Gurobi Optimizer version 10.0.3 build v10.0.3rc0 (linux64)

CPU model: Intel(R) Xeon(R) Gold 6146 CPU @ 3.20GHz, instruction set [SSE2|AVX|AVX2|AVX512]
Thread count: 24 physical cores, 48 logical processors, using up to 24 threads

Optimize a model with 5810 rows, 2726 columns and 15838060 nonzeros
Model fingerprint: 0xefa97657
Coefficient statistics:
  Matrix range     [1e-12, 5e-04]
  Objective range  [2e-03, 1e+00]
  Bounds range     [1e+00, 1e+00]
  RHS range        [1e-05, 1e-05]
Presolve time: 5.11s
Presolved: 2726 rows, 8536 columns, 15840786 nonzeros
Error: invalid user locale; possible fix is to set the system environment
       variable 'LC_ALL' to a valid locale (e.g., to 'C')
Ordering time: 0.04s

Barrier statistics:
 AA' NZ     : 3.714e+06
 Factor NZ  : 3.717e+06 (roughly 34 MB of memory)
 Factor Ops : 6.756e+09 (less than 1 second per iteration)
 Threads    : 24

                  Objective                Residual
Iter       Primal          Dual         Primal    Dual     Compl     Time
   0   5.69170439e+03  0.00000000e+00  0.00e+00 0.00e+00  9.86e-01     7s
   1   3.06009775e+03  6.15191939e+02  0.00e+00 1.81e-01  3.86e-01     7s
   2   2.33426279e+03  1.03710618e+03  0.00e+00 9.89e-02  2.01e-01     7s
   3   2.15931691e+03  1.21624579e+03  0.00e+00 6.74e-02  1.41e-01     8s
   4   1.85715807e+03  1.29405903e+03  0.00e+00 4.80e-02  8.94e-02     8s
   5   1.78994740e+03  1.30857096e+03  0.00e+00 4.17e-02  7.72e-02     8s
   6   1.58352180e+03  1.31536747e+03  0.00e+00 3.78e-02  5.53e-02     9s
   7   1.52620392e+03  1.32393322e+03  0.00e+00 3.09e-02  4.46e-02     9s
   8   1.48886823e+03  1.32385447e+03  0.00e+00 2.81e-02  3.98e-02     9s
   9   1.46161431e+03  1.32285251e+03  0.00e+00 2.73e-02  3.73e-02    10s
  10   1.43161057e+03  1.32065546e+03  0.00e+00 2.61e-02  3.46e-02    10s
  11   1.39509984e+03  1.31573635e+03  0.00e+00 2.41e-02  3.06e-02    10s
  12   1.38852777e+03  1.31481448e+03  0.00e+00 2.38e-02  2.99e-02    11s
  13   1.36277664e+03  1.30982006e+03  0.00e+00 2.21e-02  2.69e-02    11s
  14   1.35405562e+03  1.30668028e+03  0.00e+00 2.13e-02  2.57e-02    11s
  15   1.33928308e+03  1.30235213e+03  0.00e+00 2.03e-02  2.41e-02    11s
  16   1.32752424e+03  1.29354591e+03  0.00e+00 1.83e-02  2.20e-02    12s
  17   1.29712105e+03  1.28626889e+03  0.00e+00 1.67e-02  1.89e-02    12s
  18   1.27840501e+03  1.28180505e+03  0.00e+00 1.59e-02  1.70e-02    12s
  19   1.26248803e+03  1.27497373e+03  0.00e+00 1.46e-02  1.52e-02    13s
  20   1.25489701e+03  1.26683616e+03  0.00e+00 1.33e-02  1.38e-02    13s
  21   1.24206578e+03  1.25643182e+03  0.00e+00 1.18e-02  1.22e-02    13s
  22   1.23063089e+03  1.25484339e+03  0.00e+00 1.16e-02  1.13e-02    14s
  23   1.21108612e+03  1.24749031e+03  0.00e+00 1.07e-02  9.77e-03    14s
  24   1.19796052e+03  1.23750836e+03  0.00e+00 9.64e-03  8.76e-03    14s
  25   1.19493850e+03  1.23395610e+03  0.00e+00 9.31e-03  8.50e-03    14s
  26   1.19006393e+03  1.23088216e+03  0.00e+00 9.02e-03  8.17e-03    15s
  27   1.17886127e+03  1.22362994e+03  0.00e+00 8.38e-03  7.39e-03    15s
  28   1.17139246e+03  1.21599152e+03  0.00e+00 7.73e-03  6.81e-03    15s
  29   1.16137710e+03  1.21168479e+03  0.00e+00 7.39e-03  6.13e-03    16s
  30   1.15935288e+03  1.20692920e+03  0.00e+00 7.01e-03  5.90e-03    16s
  31   1.15688234e+03  1.20466335e+03  0.00e+00 6.83e-03  5.70e-03    16s
  32   1.15168642e+03  1.19980290e+03  0.00e+00 6.45e-03  5.27e-03    17s
  33   1.14482366e+03  1.19394755e+03  0.00e+00 6.02e-03  4.73e-03    17s
  34   1.14221122e+03  1.19224320e+03  0.00e+00 5.89e-03  4.54e-03    17s
  35   1.13871889e+03  1.19003502e+03  0.00e+00 5.73e-03  4.32e-03    18s
  36   1.13304211e+03  1.18139335e+03  0.00e+00 5.18e-03  3.92e-03    18s
  37   1.12680037e+03  1.17806772e+03  0.00e+00 4.98e-03  3.52e-03    18s
  38   1.12034696e+03  1.17200324e+03  0.00e+00 4.59e-03  3.02e-03    18s
  39   1.11875925e+03  1.16122668e+03  0.00e+00 3.90e-03  2.73e-03    19s
  40   1.11746082e+03  1.15972118e+03  0.00e+00 3.81e-03  2.62e-03    19s
  41   1.11638720e+03  1.15614999e+03  0.00e+00 3.59e-03  2.50e-03    19s
  42   1.11327619e+03  1.14899036e+03  0.00e+00 3.14e-03  2.16e-03    20s
  43   1.10784476e+03  1.14200403e+03  0.00e+00 2.72e-03  1.65e-03    20s
  44   1.10694731e+03  1.13902473e+03  0.00e+00 2.54e-03  1.54e-03    20s
  45   1.10470593e+03  1.12865608e+03  0.00e+00 1.93e-03  1.22e-03    21s
  46   1.10235239e+03  1.12453681e+03  0.00e+00 1.68e-03  9.63e-04    21s
  47   1.10058432e+03  1.12153260e+03  0.00e+00 1.50e-03  7.81e-04    21s
  48   1.09938161e+03  1.11636639e+03  0.00e+00 1.19e-03  6.00e-04    22s
  49   1.09804239e+03  1.11400940e+03  0.00e+00 1.05e-03  4.50e-04    22s
  50   1.09782555e+03  1.11179871e+03  0.00e+00 9.23e-04  4.01e-04    23s
  51   1.09738080e+03  1.10944165e+03  0.00e+00 7.84e-04  3.25e-04    23s
  52   1.09694925e+03  1.10508277e+03  0.00e+00 5.29e-04  2.20e-04    23s
  53   1.09686163e+03  1.10327356e+03  0.00e+00 4.23e-04  1.84e-04    24s
  54   1.09655665e+03  1.10281476e+03  0.00e+00 3.96e-04  1.51e-04    24s
  55   1.09650074e+03  1.10170074e+03  0.00e+00 3.30e-04  1.28e-04    24s
  56   1.09646068e+03  1.10063673e+03  0.00e+00 2.68e-04  1.07e-04    25s
  57   1.09632043e+03  1.10014629e+03  0.00e+00 2.39e-04  8.77e-05    25s
  58   1.09627968e+03  1.10007255e+03  0.00e+00 2.35e-04  8.32e-05    25s
  59   1.09620277e+03  1.09933642e+03  0.00e+00 1.92e-04  6.61e-05    26s
  60   1.09617953e+03  1.09871073e+03  0.00e+00 1.56e-04  5.42e-05    26s
  61   1.09614126e+03  1.09787633e+03  0.00e+00 1.08e-04  3.88e-05    27s
  62   1.09608794e+03  1.09683102e+03  6.14e-07 4.78e-05  1.97e-05    27s
  63   1.09606757e+03  1.09647890e+03  6.40e-07 2.74e-05  1.26e-05    27s
  64   1.09605283e+03  1.09631498e+03  2.92e-06 1.79e-05  8.90e-06    28s
  65   1.09604377e+03  1.09619771e+03  3.21e-06 1.11e-05  6.30e-06    28s
  66   1.09604207e+03  1.09616114e+03  4.86e-06 9.00e-06  5.58e-06    29s
  67   1.09604172e+03  1.09613116e+03  9.57e-06 7.25e-06  5.07e-06    29s
  68   1.09603448e+03  1.09608711e+03  1.48e-05 4.71e-06  3.76e-06    30s
  69   1.09603301e+03  1.09608119e+03  2.54e-05 4.37e-06  3.54e-06    30s
  70   1.09603249e+03  1.09608071e+03  2.68e-05 4.34e-06  3.51e-06    31s
  71   1.09603173e+03  1.09607676e+03  2.72e-05 4.11e-06  3.37e-06    32s
  72   1.09603174e+03  1.09607660e+03  3.85e-05 4.10e-06  3.07e-06    32s
  73   1.09603192e+03  1.09607660e+03  4.84e-05 4.10e-06  3.07e-06    32s
  74   1.09603098e+03  1.09607159e+03  5.71e-05 3.81e-06  2.93e-06    33s
  75   1.09603091e+03  1.09607119e+03  6.00e-05 3.79e-06  2.92e-06    34s
  76   1.09602912e+03  1.09606738e+03  4.68e-05 3.56e-06  2.74e-06    34s
  77   1.09602950e+03  1.09606737e+03  5.35e-05 3.56e-06  2.74e-06    35s
  78   1.09602700e+03  1.09606181e+03  7.64e-05 3.24e-06  2.49e-06    36s
  79   1.09602702e+03  1.09606179e+03  7.14e-05 3.24e-06  2.49e-06    36s
  80   1.09602596e+03  1.09606178e+03  1.31e-04 3.24e-06  2.49e-06    37s
  81   1.09602615e+03  1.09606176e+03  1.27e-04 3.24e-06  2.49e-06    38s
  82   1.09602492e+03  1.09606031e+03  1.16e-04 3.16e-06  2.39e-06    38s
  83   1.09602500e+03  1.09606020e+03  1.26e-04 3.15e-06  2.38e-06    39s
  84   1.09602444e+03  1.09606017e+03  1.18e-04 3.15e-06  2.38e-06    39s
  85   1.09602362e+03  1.09605952e+03  1.16e-04 3.11e-06  2.31e-06    40s
  86   1.09602348e+03  1.09605930e+03  1.17e-04 3.10e-06  2.30e-06    41s
  87   1.09602315e+03  1.09605742e+03  1.31e-04 2.99e-06  2.22e-06    41s
  88   1.09602367e+03  1.09605742e+03  1.68e-04 2.99e-06  2.22e-06    42s
  89   1.09602388e+03  1.09605614e+03  2.57e-04 2.91e-06  2.20e-06    42s
  90   1.09602390e+03  1.09605612e+03  2.55e-04 2.91e-06  2.20e-06    43s
  91   1.09602532e+03  1.09605598e+03  4.32e-04 2.91e-06  2.20e-06    44s
  92   1.09602433e+03  1.09605411e+03  4.15e-04 2.80e-06  2.13e-06    44s
  93   1.09602423e+03  1.09605366e+03  4.19e-04 2.77e-06  2.12e-06    45s
  94   1.09602372e+03  1.09605265e+03  4.29e-04 2.71e-06  2.08e-06    45s
  95   1.09602313e+03  1.09605265e+03  5.49e-04 2.71e-06  2.08e-06    46s
  96   1.09602185e+03  1.09605069e+03  5.10e-04 2.60e-06  1.99e-06    47s
  97   1.09602195e+03  1.09605052e+03  4.89e-04 2.59e-06  1.98e-06    47s
  98   1.09602186e+03  1.09605027e+03  4.84e-04 2.57e-06  1.96e-06    48s
  99   1.09602154e+03  1.09604965e+03  4.60e-04 2.54e-06  1.94e-06    49s
 100   1.09602144e+03  1.09604946e+03  4.57e-04 2.53e-06  1.93e-06    49s
 101   1.09601986e+03  1.09604814e+03  4.42e-04 2.45e-06  1.81e-06    50s
 102   1.09601915e+03  1.09604557e+03  4.02e-04 2.30e-06  1.70e-06    50s
 103   1.09601960e+03  1.09604557e+03  4.10e-04 2.30e-06  1.69e-06    51s
 104   1.09601924e+03  1.09604534e+03  4.22e-04 2.29e-06  1.68e-06    51s
 105   1.09601911e+03  1.09604533e+03  4.19e-04 2.29e-06  1.68e-06    51s
 106   1.09601862e+03  1.09604532e+03  4.29e-04 2.29e-06  1.68e-06    52s
 107   1.09601869e+03  1.09604417e+03  4.54e-04 2.22e-06  1.63e-06    53s
 108   1.09601848e+03  1.09604291e+03  4.54e-04 2.15e-06  1.59e-06    53s
 109   1.09601773e+03  1.09604277e+03  1.13e-03 2.14e-06  1.59e-06    54s
 110   1.09601728e+03  1.09604149e+03  1.05e-03 2.07e-06  1.51e-06    55s
 111   1.09602654e+03  1.09604093e+03  1.14e-03 2.04e-06  1.50e-06    55s
 112   1.09602620e+03  1.09603932e+03  1.08e-03 1.94e-06  1.42e-06    56s
 113   1.09602615e+03  1.09603933e+03  1.09e-03 1.94e-06  1.42e-06    57s
 114   1.09602574e+03  1.09603916e+03  1.08e-03 1.93e-06  1.41e-06    58s
 115   1.09602555e+03  1.09603880e+03  1.07e-03 1.91e-06  1.40e-06    58s
 116   1.09602544e+03  1.09603880e+03  1.07e-03 1.91e-06  1.40e-06    59s
 117   1.09602483e+03  1.09603815e+03  1.04e-03 1.87e-06  1.36e-06    59s
 118   1.09602480e+03  1.09603765e+03  1.02e-03 1.84e-06  1.33e-06    59s
 119   1.09602797e+03  1.09603754e+03  1.16e-03 1.84e-06  1.33e-06    60s
 120   1.09602789e+03  1.09603754e+03  1.16e-03 1.84e-06  1.33e-06    60s
 121   1.09602760e+03  1.09603749e+03  1.15e-03 1.84e-06  1.32e-06    61s
 122   1.09602687e+03  1.09603613e+03  1.15e-03 1.76e-06  1.26e-06    62s
 123   1.09602610e+03  1.09603582e+03  1.13e-03 1.74e-06  1.23e-06    63s
 124   1.09602589e+03  1.09603556e+03  1.12e-03 1.72e-06  1.23e-06    63s
 125   1.09602577e+03  1.09603501e+03  1.11e-03 1.69e-06  1.21e-06    64s
 126   1.09602584e+03  1.09603500e+03  1.09e-03 1.69e-06  1.21e-06    64s
 127   1.09602596e+03  1.09603500e+03  1.09e-03 1.69e-06  1.21e-06    65s
 128   1.09603685e+03  1.09603293e+03  3.71e-03 1.57e-06  1.19e-06    66s
 129   1.09603674e+03  1.09603291e+03  3.70e-03 1.57e-06  1.19e-06    66s
 130   1.09603219e+03  1.09603291e+03  4.17e-03 1.57e-06  1.19e-06    67s
 131   1.09609079e+03  1.09603280e+03  8.70e-03 1.56e-06  1.18e-06    67s
 132   1.09609023e+03  1.09603253e+03  8.68e-03 1.55e-06  1.18e-06    68s

Barrier performed 132 iterations in 68.04 seconds (73.23 work units)
Sub-optimal termination - objective 1.09603173e+03

Optimization finished!
Restarting optimization for throughput iteration 1...
Gurobi Optimizer version 10.0.3 build v10.0.3rc0 (linux64)

CPU model: Intel(R) Xeon(R) Gold 6146 CPU @ 3.20GHz, instruction set [SSE2|AVX|AVX2|AVX512]
Thread count: 24 physical cores, 48 logical processors, using up to 24 threads

Optimize a model with 5810 rows, 2726 columns and 15838060 nonzeros
Model fingerprint: 0x9794ec76
Coefficient statistics:
  Matrix range     [1e-12, 5e-04]
  Objective range  [2e-03, 1e+00]
  Bounds range     [1e+00, 1e+00]
  RHS range        [5e-06, 5e-06]
Presolve time: 5.06s
Presolved: 2726 rows, 8536 columns, 15840786 nonzeros
Ordering time: 0.04s

Barrier statistics:
 AA' NZ     : 3.714e+06
 Factor NZ  : 3.717e+06 (roughly 34 MB of memory)
 Factor Ops : 6.756e+09 (less than 1 second per iteration)
 Threads    : 24

                  Objective                Residual
Iter       Primal          Dual         Primal    Dual     Compl     Time
   0   5.61136466e+03  0.00000000e+00  0.00e+00 0.00e+00  9.77e-01     7s
   1   2.99459176e+03  6.04862233e+02  0.00e+00 1.83e-01  3.87e-01     7s
   2   2.26910022e+03  1.01947523e+03  0.00e+00 9.92e-02  2.04e-01     7s
   3   1.79003747e+03  1.22975694e+03  0.00e+00 6.34e-02  1.07e-01     8s
   4   1.60105844e+03  1.28191384e+03  0.00e+00 4.90e-02  7.45e-02     8s
   5   1.53371344e+03  1.29036116e+03  0.00e+00 4.49e-02  6.54e-02     8s
   6   1.49352798e+03  1.29580558e+03  0.00e+00 4.02e-02  5.80e-02     9s
   7   1.46327763e+03  1.29595095e+03  0.00e+00 3.72e-02  5.36e-02     9s
   8   1.40497493e+03  1.29315243e+03  0.00e+00 3.48e-02  4.83e-02     9s
   9   1.37738151e+03  1.28905157e+03  0.00e+00 3.31e-02  4.56e-02    10s
  10   1.36825922e+03  1.28680133e+03  0.00e+00 3.23e-02  4.45e-02    10s
  11   1.32333148e+03  1.27844082e+03  0.00e+00 2.97e-02  3.97e-02    10s
  12   1.28667809e+03  1.27044639e+03  0.00e+00 2.76e-02  3.58e-02    11s
  13   1.27013992e+03  1.26475211e+03  0.00e+00 2.64e-02  3.39e-02    11s
  14   1.26206695e+03  1.26095509e+03  0.00e+00 2.57e-02  3.28e-02    11s
  15   1.24348251e+03  1.25401651e+03  0.00e+00 2.44e-02  3.08e-02    11s
  16   1.23239432e+03  1.25056270e+03  0.00e+00 2.38e-02  2.98e-02    12s
  17   1.21764959e+03  1.24553007e+03  0.00e+00 2.29e-02  2.83e-02    12s
  18   1.19440276e+03  1.23128211e+03  0.00e+00 2.07e-02  2.51e-02    12s
  19   1.17757191e+03  1.22291046e+03  0.00e+00 1.96e-02  2.34e-02    13s
  20   1.17245591e+03  1.21832007e+03  0.00e+00 1.90e-02  2.27e-02    13s
  21   1.16412191e+03  1.21402421e+03  0.00e+00 1.85e-02  2.18e-02    13s
  22   1.15177081e+03  1.20911684e+03  0.00e+00 1.79e-02  2.08e-02    13s
  23   1.12348390e+03  1.20005365e+03  0.00e+00 1.69e-02  1.88e-02    14s
  24   1.10349598e+03  1.18189526e+03  0.00e+00 1.52e-02  1.68e-02    14s
  25   1.08592832e+03  1.17573191e+03  0.00e+00 1.46e-02  1.57e-02    14s
  26   1.08138509e+03  1.17051499e+03  0.00e+00 1.42e-02  1.53e-02    15s
  27   1.07120819e+03  1.15954768e+03  0.00e+00 1.33e-02  1.43e-02    15s
  28   1.06276938e+03  1.15246319e+03  0.00e+00 1.28e-02  1.36e-02    15s
  29   1.05121408e+03  1.14689362e+03  0.00e+00 1.24e-02  1.28e-02    16s
  30   1.04721068e+03  1.14374008e+03  0.00e+00 1.22e-02  1.24e-02    16s
  31   1.04414597e+03  1.13942406e+03  0.00e+00 1.19e-02  1.21e-02    16s
  32   1.02989424e+03  1.13013757e+03  0.00e+00 1.12e-02  1.10e-02    17s
  33   1.02832011e+03  1.12846499e+03  0.00e+00 1.11e-02  1.09e-02    17s
  34   1.01959687e+03  1.12121811e+03  0.00e+00 1.06e-02  1.03e-02    17s
  35   1.00831863e+03  1.11268670e+03  0.00e+00 1.01e-02  7.71e-03    18s
  36   1.00160726e+03  1.10400953e+03  0.00e+00 9.58e-03  7.32e-03    18s
  37   9.98916129e+02  1.10000118e+03  0.00e+00 9.34e-03  7.14e-03    18s
  38   9.96021911e+02  1.09279055e+03  0.00e+00 8.92e-03  6.88e-03    19s
  39   9.94919942e+02  1.08884748e+03  0.00e+00 8.69e-03  6.75e-03    19s
  40   9.89196214e+02  1.08488059e+03  0.00e+00 8.46e-03  6.34e-03    19s
  41   9.86677541e+02  1.07380217e+03  0.00e+00 7.82e-03  6.06e-03    20s
  42   9.85027477e+02  1.07182245e+03  0.00e+00 7.71e-03  5.93e-03    20s
  43   9.78237751e+02  1.06453683e+03  0.00e+00 7.29e-03  5.39e-03    20s
  44   9.76145580e+02  1.06115016e+03  0.00e+00 7.10e-03  5.19e-03    21s
  45   9.70722536e+02  1.04776629e+03  0.00e+00 6.35e-03  4.58e-03    21s
  46   9.63099042e+02  1.03554987e+03  0.00e+00 5.67e-03  3.77e-03    22s
  47   9.59343121e+02  1.02830883e+03  0.00e+00 5.27e-03  3.38e-03    22s
  48   9.58498896e+02  1.02387784e+03  0.00e+00 5.02e-03  3.26e-03    22s
  49   9.56715548e+02  1.02154303e+03  0.00e+00 4.89e-03  3.09e-03    23s
  50   9.55064549e+02  1.01935723e+03  0.00e+00 4.77e-03  2.94e-03    23s
  51   9.52831608e+02  1.01454337e+03  0.00e+00 4.51e-03  2.68e-03    23s
  52   9.50103072e+02  1.01081656e+03  0.00e+00 4.30e-03  2.40e-03    24s
  53   9.46674561e+02  1.00465861e+03  0.00e+00 3.96e-03  2.03e-03    24s
  54   9.46420703e+02  1.00260307e+03  0.00e+00 3.85e-03  1.98e-03    24s
  55   9.46136786e+02  1.00021222e+03  0.00e+00 3.72e-03  1.93e-03    25s
  56   9.45702039e+02  9.99190399e+02  0.00e+00 3.66e-03  1.88e-03    25s
  57   9.44794789e+02  9.97114284e+02  0.00e+00 3.55e-03  1.78e-03    26s
  58   9.43128816e+02  9.92187338e+02  0.00e+00 3.28e-03  1.58e-03    26s
  59   9.42412214e+02  9.85581065e+02  0.00e+00 2.92e-03  1.43e-03    26s
  60   9.40802003e+02  9.84985267e+02  0.00e+00 2.88e-03  1.31e-03    27s
  61   9.40602062e+02  9.83943189e+02  0.00e+00 2.83e-03  1.26e-03    27s
  62   9.39701836e+02  9.80568610e+02  0.00e+00 2.65e-03  1.17e-03    27s
  63   9.38933200e+02  9.79894887e+02  0.00e+00 2.61e-03  1.11e-03    28s
  64   9.38433563e+02  9.74763364e+02  0.00e+00 2.33e-03  1.03e-03    28s
  65   9.37101926e+02  9.72636043e+02  0.00e+00 2.22e-03  9.08e-04    29s
  66   9.36089249e+02  9.70739411e+02  0.00e+00 2.11e-03  8.31e-04    29s
  67   9.35981825e+02  9.68876405e+02  0.00e+00 2.02e-03  8.06e-04    29s
  68   9.35207235e+02  9.67521837e+02  0.00e+00 1.94e-03  7.27e-04    30s
  69   9.34759846e+02  9.65213604e+02  0.00e+00 1.82e-03  6.79e-04    30s
  70   9.33803635e+02  9.63537970e+02  0.00e+00 1.73e-03  6.27e-04    30s
  71   9.33588498e+02  9.60893265e+02  0.00e+00 1.60e-03  5.92e-04    31s
  72   9.33131236e+02  9.58941444e+02  0.00e+00 1.50e-03  5.54e-04    31s
  73   9.33013999e+02  9.55988150e+02  0.00e+00 1.35e-03  5.21e-04    31s
  74   9.32606065e+02  9.54419105e+02  0.00e+00 1.27e-03  4.76e-04    32s
  75   9.32396461e+02  9.53700351e+02  0.00e+00 1.23e-03  4.55e-04    32s
  76   9.31671278e+02  9.52832451e+02  0.00e+00 1.19e-03  3.96e-04    32s
  77   9.31051297e+02  9.51657562e+02  0.00e+00 1.13e-03  3.48e-04    33s
  78   9.30861809e+02  9.49263577e+02  0.00e+00 1.01e-03  3.16e-04    33s
  79   9.30447484e+02  9.48594375e+02  3.98e-06 9.76e-04  2.84e-04    34s
  80   9.30336707e+02  9.47170859e+02  6.61e-06 9.05e-04  2.64e-04    34s
  81   9.30178387e+02  9.44077396e+02  3.36e-06 7.51e-04  2.26e-04    34s
  82   9.30001464e+02  9.42280392e+02  2.20e-06 6.61e-04  1.95e-04    35s
  83   9.29821323e+02  9.41262846e+02  1.10e-05 6.09e-04  1.70e-04    35s
  84   9.29677686e+02  9.39795926e+02  1.25e-05 5.36e-04  1.48e-04    36s
  85   9.29490668e+02  9.38370710e+02  2.58e-05 4.66e-04  1.23e-04    36s
  86   9.29393188e+02  9.35683976e+02  2.97e-05 3.33e-04  9.37e-05    36s
  87   9.29263634e+02  9.34542560e+02  4.69e-05 2.77e-04  7.40e-05    37s
  88   9.29194899e+02  9.33762821e+02  3.79e-05 2.38e-04  6.23e-05    37s
  89   9.29155615e+02  9.33293857e+02  5.04e-05 2.15e-04  5.50e-05    38s
  90   9.29150552e+02  9.33025473e+02  4.86e-05 2.02e-04  5.24e-05    38s
  91   9.29123020e+02  9.32555582e+02  7.35e-05 1.79e-04  4.66e-05    39s
  92   9.29121794e+02  9.32549328e+02  6.93e-05 1.78e-04  4.64e-05    39s
  93   9.29097980e+02  9.32510223e+02  6.31e-05 1.76e-04  4.43e-05    40s
  94   9.29097620e+02  9.32495617e+02  1.02e-04 1.76e-04  3.86e-05    40s
  95   9.29095602e+02  9.32473336e+02  1.45e-04 1.75e-04  3.83e-05    41s
  96   9.29093962e+02  9.32452338e+02  1.84e-04 1.74e-04  3.80e-05    42s
  97   9.29093970e+02  9.32452028e+02  1.97e-04 1.74e-04  3.78e-05    42s
  98   9.29091489e+02  9.32384360e+02  2.12e-04 1.70e-04  3.72e-05    43s
  99   9.29091162e+02  9.32378118e+02  2.15e-04 1.70e-04  3.72e-05    43s
 100   9.29090727e+02  9.32376109e+02  2.12e-04 1.70e-04  3.71e-05    44s
 101   9.29090635e+02  9.32373208e+02  2.15e-04 1.70e-04  3.71e-05    44s
 102   9.29090622e+02  9.32369844e+02  2.11e-04 1.70e-04  3.71e-05    45s
 103   9.29090405e+02  9.32358543e+02  2.20e-04 1.69e-04  3.70e-05    46s
 104   9.29090497e+02  9.32358179e+02  2.28e-04 1.69e-04  3.70e-05    46s
 105   9.29090300e+02  9.32356360e+02  2.31e-04 1.69e-04  3.69e-05    47s
 106   9.29090297e+02  9.32346441e+02  2.40e-04 1.68e-04  3.68e-05    47s
 107   9.29086356e+02  9.32287381e+02  2.45e-04 1.65e-04  3.63e-05    48s
 108   9.29074252e+02  9.32214096e+02  2.06e-04 1.62e-04  3.52e-05    49s
 109   9.29070603e+02  9.32198510e+02  2.20e-04 1.61e-04  3.49e-05    50s
 110   9.29070651e+02  9.32197383e+02  2.32e-04 1.61e-04  3.49e-05    50s
 111   9.29062538e+02  9.32066848e+02  2.56e-04 1.55e-04  3.37e-05    51s
 112   9.29060676e+02  9.32045204e+02  2.27e-04 1.54e-04  3.34e-05    52s
 113   9.29060631e+02  9.32040319e+02  2.30e-04 1.53e-04  3.34e-05    52s
 114   9.29059879e+02  9.32034142e+02  3.15e-04 1.53e-04  3.33e-05    53s
 115   9.29055255e+02  9.31992125e+02  2.75e-04 1.51e-04  3.27e-05    54s
 116   9.29055708e+02  9.31992099e+02  2.68e-04 1.51e-04  3.27e-05    54s
 117   9.29055224e+02  9.31990104e+02  2.51e-04 1.51e-04  3.27e-05    55s
 118   9.29054968e+02  9.31987344e+02  2.54e-04 1.51e-04  3.26e-05    56s
 119   9.29053153e+02  9.31951553e+02  2.29e-04 1.49e-04  3.23e-05    56s
 120   9.29052686e+02  9.31947235e+02  2.28e-04 1.49e-04  3.22e-05    57s
 121   9.29051160e+02  9.31836754e+02  2.20e-04 1.43e-04  3.14e-05    58s
 122   9.29046354e+02  9.31783127e+02  2.03e-04 1.41e-04  3.07e-05    58s
 123   9.29046179e+02  9.31782427e+02  2.19e-04 1.41e-04  3.07e-05    59s
 124   9.29046418e+02  9.31782390e+02  3.74e-04 1.41e-04  3.07e-05    60s
 125   9.29043246e+02  9.31733887e+02  3.60e-04 1.38e-04  3.01e-05    60s
 126   9.29043550e+02  9.31733636e+02  3.53e-04 1.38e-04  3.01e-05    61s
 127   9.29042151e+02  9.31682923e+02  3.57e-04 1.36e-04  2.97e-05    62s
 128   9.29042123e+02  9.31682914e+02  3.61e-04 1.36e-04  2.97e-05    62s
 129   9.29042071e+02  9.31682390e+02  3.55e-04 1.36e-04  2.97e-05    63s
 130   9.29040840e+02  9.31656642e+02  3.51e-04 1.35e-04  2.94e-05    63s
 131   9.29038630e+02  9.31613583e+02  3.40e-04 1.33e-04  2.89e-05    64s
 132   9.29038906e+02  9.31613502e+02  3.35e-04 1.32e-04  2.89e-05    65s
 133   9.29038865e+02  9.31613433e+02  3.30e-04 1.32e-04  2.89e-05    66s
 134   9.29036445e+02  9.31548069e+02  3.10e-04 1.29e-04  2.83e-05    66s
 135   9.29035831e+02  9.31542029e+02  3.12e-04 1.29e-04  2.82e-05    67s
 136   9.29035693e+02  9.31539874e+02  3.09e-04 1.29e-04  2.81e-05    68s
 137   9.29032703e+02  9.31455954e+02  3.29e-04 1.25e-04  2.73e-05    68s
 138   9.29030460e+02  9.31450002e+02  3.28e-04 1.25e-04  2.70e-05    69s
 139   9.29029423e+02  9.31412804e+02  3.15e-04 1.23e-04  2.67e-05    70s
 140   9.29028927e+02  9.31393304e+02  3.14e-04 1.22e-04  2.65e-05    70s
 141   9.29027845e+02  9.31377208e+02  3.28e-04 1.21e-04  2.63e-05    71s
 142   9.29026095e+02  9.31319893e+02  3.25e-04 1.18e-04  2.58e-05    72s
 143   9.29025904e+02  9.31318683e+02  3.49e-04 1.18e-04  2.58e-05    72s
 144   9.29023447e+02  9.31282777e+02  3.20e-04 1.16e-04  2.53e-05    73s
 145   9.29020273e+02  9.31196300e+02  3.02e-04 1.12e-04  2.45e-05    73s
 146   9.29019927e+02  9.31188543e+02  3.37e-04 1.12e-04  2.44e-05    74s
 147   9.29020453e+02  9.31185199e+02  5.70e-04 1.12e-04  2.44e-05    74s
 148   9.29020363e+02  9.31176380e+02  5.72e-04 1.11e-04  2.43e-05    75s
 149   9.29019762e+02  9.31156593e+02  5.74e-04 1.10e-04  2.41e-05    76s
 150   9.29008667e+02  9.31070751e+02  5.48e-04 1.06e-04  2.26e-05    76s
 151   9.29008765e+02  9.31069320e+02  5.30e-04 1.06e-04  2.26e-05    77s
 152   9.29008223e+02  9.31069295e+02  5.14e-04 1.06e-04  2.26e-05    78s
 153   9.29007644e+02  9.31054151e+02  5.04e-04 1.05e-04  2.25e-05    78s
 154   9.29005860e+02  9.31050806e+02  5.15e-04 1.05e-04  2.24e-05    79s
 155   9.29005984e+02  9.31050078e+02  5.09e-04 1.05e-04  2.24e-05    79s
 156   9.29005939e+02  9.31045731e+02  5.07e-04 1.05e-04  2.24e-05    80s
 157   9.29005720e+02  9.31044066e+02  5.05e-04 1.05e-04  2.23e-05    81s
 158   9.29005567e+02  9.31043993e+02  5.11e-04 1.05e-04  2.23e-05    81s
 159   9.29005574e+02  9.31043913e+02  5.07e-04 1.05e-04  2.23e-05    82s
 160   9.29006926e+02  9.31039847e+02  5.36e-04 1.04e-04  2.23e-05    82s
 161   9.29006612e+02  9.31037587e+02  5.44e-04 1.04e-04  2.22e-05    83s
 162   9.29006241e+02  9.31030277e+02  5.49e-04 1.04e-04  2.22e-05    84s
 163   9.29005840e+02  9.31029189e+02  5.39e-04 1.04e-04  2.22e-05    84s
 164   9.29005697e+02  9.31026900e+02  5.34e-04 1.04e-04  2.21e-05    85s
 165   9.29005824e+02  9.31026267e+02  5.35e-04 1.04e-04  2.21e-05    85s
 166   9.29005769e+02  9.31025695e+02  5.36e-04 1.04e-04  2.21e-05    86s
 167   9.29002963e+02  9.31005351e+02  5.02e-04 1.03e-04  2.18e-05    87s
 168   9.29001843e+02  9.30962919e+02  5.07e-04 1.01e-04  2.14e-05    88s
 169   9.29001828e+02  9.30962792e+02  5.17e-04 1.01e-04  2.14e-05    88s

Barrier performed 169 iterations in 88.27 seconds (97.51 work units)
Sub-optimal termination - objective 9.29005574e+02

/user/bnickson/GitHub/LUVex_TelAps/aplc_optimization/surveys/usort_offaxis_survey_N0128_telserv3/FPM35_IWA34/drivers/01_USORT_N128_FPM350M0150_IWA0340_OWA01400_C10_BW15_Nlam5_LS_IDc_ID0_OD_OD0_ls_90_ovsamp16_.py:102: DeprecationWarning: circular_aperture is deprecated. Its new name is make_circular_aperture.
  dark_zone_mask = circular_aperture(img_owa * 2)(focal_grid) - circular_aperture(img_iwa * 2)(focal_grid)
/user/bnickson/GitHub/LUVex_TelAps/aplc_optimization/surveys/usort_offaxis_survey_N0128_telserv3/FPM35_IWA34/drivers/01_USORT_N128_FPM350M0150_IWA0340_OWA01400_C10_BW15_Nlam5_LS_IDc_ID0_OD_OD0_ls_90_ovsamp16_.py:110: DeprecationWarning: circular_aperture is deprecated. Its new name is make_circular_aperture.
  focal_plane_mask = 1 - evaluate_supersampled(circular_aperture(2 * fpm_radius), focal_mask_grid, 8)
WARNING: VerifyWarning: Keyword name 'LS_ALIGN_TOl' is greater than 8 characters or contains characters not allowed by the FITS standard; a HIERARCH card will be created. [astropy.io.fits.card]
WARNING: VerifyWarning: Keyword name 'LS_NUM_STOPS' is greater than 8 characters or contains characters not allowed by the FITS standard; a HIERARCH card will be created. [astropy.io.fits.card]
WARNING: VerifyWarning: Keyword name 'PROG_START' is greater than 8 characters or contains characters not allowed by the FITS standard; a HIERARCH card will be created. [astropy.io.fits.card]
WARNING: VerifyWarning: Keyword name 'PROG_EDGE' is greater than 8 characters or contains characters not allowed by the FITS standard; a HIERARCH card will be created. [astropy.io.fits.card]
WARNING: VerifyWarning: Keyword name 'THRPT_ITER' is greater than 8 characters or contains characters not allowed by the FITS standard; a HIERARCH card will be created. [astropy.io.fits.card]
WARNING: VerifyWarning: Keyword name 'THRPT_ESTIM' is greater than 8 characters or contains characters not allowed by the FITS standard; a HIERARCH card will be created. [astropy.io.fits.card]
WARNING: VerifyWarning: Keyword name 'MAX_THRPT' is greater than 8 characters or contains characters not allowed by the FITS standard; a HIERARCH card will be created. [astropy.io.fits.card]
WARNING: VerifyWarning: Keyword name 'SLV_THRDS' is greater than 8 characters or contains characters not allowed by the FITS standard; a HIERARCH card will be created. [astropy.io.fits.card]
WARNING: VerifyWarning: Keyword name 'SLV_XOVER' is greater than 8 characters or contains characters not allowed by the FITS standard; a HIERARCH card will be created. [astropy.io.fits.card]
Optimization finished!
